
Gurobi 11.0.3 (linux64) logging started Mon Dec 15 14:40:52 2025

Set parameter LogFile to value "./log/train/IS_800_5/IS_4.lp.log"
Set parameter TimeLimit to value 3600
Gurobi Optimizer version 11.0.3 build v11.0.3rc0 (linux64 - "Ubuntu 22.04.5 LTS")

CPU model: AMD Ryzen 9 9900X 12-Core Processor, instruction set [SSE2|AVX|AVX2|AVX512]
Thread count: 12 physical cores, 24 logical processors, using up to 24 threads

Optimize a model with 4105 rows, 800 columns and 8054 nonzeros
Model fingerprint: 0x1c2261c9
Variable types: 0 continuous, 800 integer (800 binary)
Coefficient statistics:
  Matrix range     [1e+00, 1e+00]
  Objective range  [1e+00, 1e+00]
  Bounds range     [1e+00, 1e+00]
  RHS range        [1e+00, 1e+00]
Found heuristic solution: objective 183.0000000
Presolve removed 931 rows and 1 columns
Presolve time: 0.01s
Presolved: 3174 rows, 799 columns, 6947 nonzeros
Found heuristic solution: objective 198.0000000
Variable types: 0 continuous, 799 integer (799 binary)

Root relaxation: objective 3.645000e+02, 1321 iterations, 0.03 seconds (0.06 work units)

    Nodes    |    Current Node    |     Objective Bounds      |     Work
 Expl Unexpl |  Obj  Depth IntInf | Incumbent    BestBd   Gap | It/Node Time

     0     0  364.50000    0  679  198.00000  364.50000  84.1%     -    0s
H    0     0                     300.0000000  364.50000  21.5%     -    0s
H    0     0                     320.0000000  364.50000  13.9%     -    0s
     0     0  358.27988    0  785  320.00000  358.27988  12.0%     -    0s
H    0     0                     321.0000000  358.27988  11.6%     -    0s
H    0     0                     322.0000000  358.27988  11.3%     -    0s
     0     0  358.27497    0  785  322.00000  358.27497  11.3%     -    0s
     0     0  353.57329    0  788  322.00000  353.57329  9.81%     -    0s
     0     0  353.47211    0  788  322.00000  353.47211  9.77%     -    0s
     0     0  353.45901    0  787  322.00000  353.45901  9.77%     -    0s
     0     0  353.45688    0  787  322.00000  353.45688  9.77%     -    0s
     0     0  351.41383    0  781  322.00000  351.41383  9.13%     -    0s
H    0     0                     325.0000000  351.41383  8.13%     -    0s
     0     0  351.22552    0  779  325.00000  351.22552  8.07%     -    0s
H    0     0                     326.0000000  351.21905  7.74%     -    0s
     0     0  351.21905    0  781  326.00000  351.21905  7.74%     -    0s
     0     0  351.21814    0  782  326.00000  351.21814  7.74%     -    0s
     0     0  350.49886    0  782  326.00000  350.49886  7.51%     -    0s
     0     0  350.37790    0  780  326.00000  350.37790  7.48%     -    0s
     0     0  350.34786    0  782  326.00000  350.34786  7.47%     -    0s
     0     0  350.34378    0  781  326.00000  350.34378  7.47%     -    0s
     0     0  349.17739    0  782  326.00000  349.17739  7.11%     -    0s
     0     0  349.10888    0  783  326.00000  349.10888  7.09%     -    0s
     0     0  349.08132    0  781  326.00000  349.08132  7.08%     -    0s
     0     0  349.07335    0  781  326.00000  349.07335  7.08%     -    0s
     0     0  349.07318    0  782  326.00000  349.07318  7.08%     -    0s
     0     0  348.30653    0  783  326.00000  348.30653  6.84%     -    0s
H    0     0                     327.0000000  348.23223  6.49%     -    0s
     0     0  348.23223    0  781  327.00000  348.23223  6.49%     -    0s
     0     0  348.22290    0  781  327.00000  348.22290  6.49%     -    0s
     0     0  348.22057    0  782  327.00000  348.22057  6.49%     -    0s
     0     0  347.80844    0  780  327.00000  347.80844  6.36%     -    0s
     0     0  347.76962    0  783  327.00000  347.76962  6.35%     -    0s
     0     0  347.76820    0  782  327.00000  347.76820  6.35%     -    0s
     0     0  347.67041    0  786  327.00000  347.67041  6.32%     -    0s
     0     0  347.62964    0  786  327.00000  347.62964  6.31%     -    0s
     0     0  347.61759    0  787  327.00000  347.61759  6.31%     -    0s
     0     0  347.61310    0  787  327.00000  347.61310  6.30%     -    0s
H    0     0                     330.0000000  347.61310  5.34%     -    0s
     0     0  347.46542    0  786  330.00000  347.46542  5.29%     -    1s
     0     0  347.41251    0  788  330.00000  347.41251  5.28%     -    1s
     0     0  347.40795    0  787  330.00000  347.40795  5.28%     -    1s
     0     0  347.13608    0  784  330.00000  347.13608  5.19%     -    1s
     0     0  347.04559    0  785  330.00000  347.04559  5.17%     -    1s
     0     0  347.04021    0  784  330.00000  347.04021  5.16%     -    1s
     0     0  346.86547    0  784  330.00000  346.86547  5.11%     -    1s
     0     0  346.83154    0  786  330.00000  346.83154  5.10%     -    1s
     0     0  346.82796    0  785  330.00000  346.82796  5.10%     -    1s
     0     0  346.74458    0  787  330.00000  346.74458  5.07%     -    1s
     0     0  346.72527    0  786  330.00000  346.72527  5.07%     -    1s
     0     0  346.71788    0  786  330.00000  346.71788  5.07%     -    1s
     0     0  346.71723    0  788  330.00000  346.71723  5.07%     -    1s
     0     0  346.66884    0  787  330.00000  346.66884  5.05%     -    1s
     0     0  346.63461    0  787  330.00000  346.63461  5.04%     -    1s
     0     0  346.62882    0  786  330.00000  346.62882  5.04%     -    1s
     0     0  346.43074    0  787  330.00000  346.43074  4.98%     -    1s
     0     0  346.40735    0  787  330.00000  346.40735  4.97%     -    1s
     0     0  346.39484    0  787  330.00000  346.39484  4.97%     -    1s
     0     0  346.39397    0  788  330.00000  346.39397  4.97%     -    1s
     0     0  346.22262    0  786  330.00000  346.22262  4.92%     -    1s
     0     0  346.20276    0  786  330.00000  346.20276  4.91%     -    1s
     0     0  346.20077    0  788  330.00000  346.20077  4.91%     -    1s
     0     0  346.08055    0  787  330.00000  346.08055  4.87%     -    1s
     0     0  345.99754    0  786  330.00000  345.99754  4.85%     -    1s
     0     0  345.97586    0  784  330.00000  345.97586  4.84%     -    1s
     0     0  345.96950    0  785  330.00000  345.96950  4.84%     -    1s
     0     0  345.88684    0  787  330.00000  345.88684  4.81%     -    1s
     0     0  345.84223    0  788  330.00000  345.84223  4.80%     -    1s
     0     0  345.83475    0  787  330.00000  345.83475  4.80%     -    1s
     0     0  345.72618    0  786  330.00000  345.72618  4.77%     -    1s
     0     0  345.68114    0  786  330.00000  345.68114  4.75%     -    1s
     0     0  345.67523    0  787  330.00000  345.67523  4.75%     -    1s
     0     0  345.42806    0  785  330.00000  345.42806  4.68%     -    1s
     0     0  345.38698    0  786  330.00000  345.38698  4.66%     -    1s
     0     0  345.37904    0  785  330.00000  345.37904  4.66%     -    1s
     0     0  345.37640    0  786  330.00000  345.37640  4.66%     -    1s
     0     0  345.37059    0  786  330.00000  345.37059  4.66%     -    1s
     0     0  345.37059    0  786  330.00000  345.37059  4.66%     -    1s
     0     2  345.37059    0  785  330.00000  345.37059  4.66%     -    1s
H   65    68                     331.0000000  344.77041  4.16%   732    3s
H  149    88                     332.0000000  344.77041  3.85%   541    3s
H  219   103                     333.0000000  344.77041  3.53%   484    3s
